p cnf 205 815
c p weight 6 1 0
c p weight -6 1 0
c p weight 7 0 0
c p weight -7 1 0
c p weight 8 -1 0
c p weight -8 1 0
c p weight 10 6.12323399573676603586882014729198302312846062338790031898128063403419218957424163818359375E-17 0
c p weight -10 1 0
c p weight 11 1 0
c p weight -11 1 0
c p weight 12 -1 0
c p weight -12 1 0
c p weight 14 -0.1335612396259832357348074083347455598413944244384765625 0
c p weight -14 1 0
c p weight 15 0.99104056186897349078890329110436141490936279296875 0
c p weight -15 1 0
c p weight 16 -1 0
c p weight -16 1 0
c p weight 18 6.12323399573676603586882014729198302312846062338790031898128063403419218957424163818359375E-17 0
c p weight -18 1 0
c p weight 19 1 0
c p weight -19 1 0
c p weight 20 -1 0
c p weight -20 1 0
c p weight 22 -1 0
c p weight -22 1 0
c p weight 23 3.673940397442059375002259206809000622711899723162043418511757408850826323032379150390625E-16 0
c p weight -23 1 0
c p weight 24 -1 0
c p weight -24 1 0
c p weight 26 -0.66765892231221446451172596425749361515045166015625 0
c p weight -26 1 0
c p weight 27 -0.7444673018050507184995012721628881990909576416015625 0
c p weight -27 1 0
c p weight 28 -1 0
c p weight -28 1 0
c p weight 30 1 0
c p weight -30 1 0
c p weight 31 0 0
c p weight -31 1 0
c p weight 32 -1 0
c p weight -32 1 0
c p weight 34 6.12323399573676603586882014729198302312846062338790031898128063403419218957424163818359375E-17 0
c p weight -34 1 0
c p weight 35 1 0
c p weight -35 1 0
c p weight 36 -1 0
c p weight -36 1 0
c p weight 38 -0.991511476394992374849834959604777395725250244140625 0
c p weight -38 1 0
c p weight 39 -0.130019199263118168108377403768827207386493682861328125 0
c p weight -39 1 0
c p weight 40 -1 0
c p weight -40 1 0
c p weight 42 6.12323399573676603586882014729198302312846062338790031898128063403419218957424163818359375E-17 0
c p weight -42 1 0
c p weight 43 1 0
c p weight -43 1 0
c p weight 44 -1 0
c p weight -44 1 0
c p weight 46 -1 0
c p weight -46 1 0
c p weight 47 3.673940397442059375002259206809000622711899723162043418511757408850826323032379150390625E-16 0
c p weight -47 1 0
c p weight 48 -1 0
c p weight -48 1 0
c p weight 50 -0.007515356911958460950362592711826437152922153472900390625 0
c p weight -50 1 0
c p weight 51 -0.999971759306474528017361080856062471866607666015625 0
c p weight -51 1 0
c p weight 52 -1 0
c p weight -52 1 0
c p weight 55 -1 0
c p weight -55 1 0
c p weight 57 1 0
c p weight -57 1 0
c p weight 58 0 0
c p weight -58 1 0
c p weight 59 -1 0
c p weight -59 1 0
c p weight 61 6.12323399573676603586882014729198302312846062338790031898128063403419218957424163818359375E-17 0
c p weight -61 1 0
c p weight 62 1 0
c p weight -62 1 0
c p weight 63 -1 0
c p weight -63 1 0
c p weight 65 0.99995600138413631707834383632871322333812713623046875 0
c p weight -65 1 0
c p weight 66 -0.00938058078421928620560521494553540833294391632080078125 0
c p weight -66 1 0
c p weight 67 -1 0
c p weight -67 1 0
c p weight 69 6.12323399573676603586882014729198302312846062338790031898128063403419218957424163818359375E-17 0
c p weight -69 1 0
c p weight 70 1 0
c p weight -70 1 0
c p weight 71 -1 0
c p weight -71 1 0
c p weight 73 -1 0
c p weight -73 1 0
c p weight 74 3.673940397442059375002259206809000622711899723162043418511757408850826323032379150390625E-16 0
c p weight -74 1 0
c p weight 75 -1 0
c p weight -75 1 0
c p weight 77 0.32056948953638542132438260523485951125621795654296875 0
c p weight -77 1 0
c p weight 78 0.94722500092553574280174188970704562962055206298828125 0
c p weight -78 1 0
c p weight 79 -1 0
c p weight -79 1 0
c p weight 81 1 0
c p weight -81 1 0
c p weight 82 0 0
c p weight -82 1 0
c p weight 83 -1 0
c p weight -83 1 0
c p weight 85 6.12323399573676603586882014729198302312846062338790031898128063403419218957424163818359375E-17 0
c p weight -85 1 0
c p weight 86 1 0
c p weight -86 1 0
c p weight 87 -1 0
c p weight -87 1 0
c p weight 89 -0.1576963200385754493293433142753201536834239959716796875 0
c p weight -89 1 0
c p weight 90 -0.98748765594628629127527119635487906634807586669921875 0
c p weight -90 1 0
c p weight 91 -1 0
c p weight -91 1 0
c p weight 93 6.12323399573676603586882014729198302312846062338790031898128063403419218957424163818359375E-17 0
c p weight -93 1 0
c p weight 94 1 0
c p weight -94 1 0
c p weight 95 -1 0
c p weight -95 1 0
c p weight 97 -1 0
c p weight -97 1 0
c p weight 98 3.673940397442059375002259206809000622711899723162043418511757408850826323032379150390625E-16 0
c p weight -98 1 0
c p weight 99 -1 0
c p weight -99 1 0
c p weight 101 0.0661181473607897196576033138626371510326862335205078125 0
c p weight -101 1 0
c p weight 102 -0.9978118011877674664589221720234490931034088134765625 0
c p weight -102 1 0
c p weight 103 -1 0
c p weight -103 1 0
c p weight 106 -1 0
c p weight -106 1 0
c p weight 108 1 0
c p weight -108 1 0
c p weight 109 0 0
c p weight -109 1 0
c p weight 110 -1 0
c p weight -110 1 0
c p weight 112 6.12323399573676603586882014729198302312846062338790031898128063403419218957424163818359375E-17 0
c p weight -112 1 0
c p weight 113 1 0
c p weight -113 1 0
c p weight 114 -1 0
c p weight -114 1 0
c p weight 116 -0.486641861830141631006796387737267650663852691650390625 0
c p weight -116 1 0
c p weight 117 -0.873601567257347166872705201967619359493255615234375 0
c p weight -117 1 0
c p weight 118 -1 0
c p weight -118 1 0
c p weight 120 6.12323399573676603586882014729198302312846062338790031898128063403419218957424163818359375E-17 0
c p weight -120 1 0
c p weight 121 1 0
c p weight -121 1 0
c p weight 122 -1 0
c p weight -122 1 0
c p weight 124 -1 0
c p weight -124 1 0
c p weight 125 3.673940397442059375002259206809000622711899723162043418511757408850826323032379150390625E-16 0
c p weight -125 1 0
c p weight 126 -1 0
c p weight -126 1 0
c p weight 128 -0.3950720127546685223052236324292607605457305908203125 0
c p weight -128 1 0
c p weight 129 -0.91865015361560520279482489058864302933216094970703125 0
c p weight -129 1 0
c p weight 130 -1 0
c p weight -130 1 0
c p weight 132 1 0
c p weight -132 1 0
c p weight 133 0 0
c p weight -133 1 0
c p weight 134 -1 0
c p weight -134 1 0
c p weight 136 6.12323399573676603586882014729198302312846062338790031898128063403419218957424163818359375E-17 0
c p weight -136 1 0
c p weight 137 1 0
c p weight -137 1 0
c p weight 138 -1 0
c p weight -138 1 0
c p weight 140 -0.849871234472090453238024565507657825946807861328125 0
c p weight -140 1 0
c p weight 141 -0.52699040296468868671553309468436054885387420654296875 0
c p weight -141 1 0
c p weight 142 -1 0
c p weight -142 1 0
c p weight 144 6.12323399573676603586882014729198302312846062338790031898128063403419218957424163818359375E-17 0
c p weight -144 1 0
c p weight 145 1 0
c p weight -145 1 0
c p weight 146 -1 0
c p weight -146 1 0
c p weight 148 -1 0
c p weight -148 1 0
c p weight 149 3.673940397442059375002259206809000622711899723162043418511757408850826323032379150390625E-16 0
c p weight -149 1 0
c p weight 150 -1 0
c p weight -150 1 0
c p weight 152 0.957428415249673481213221748475916683673858642578125 0
c p weight -152 1 0
c p weight 153 -0.288670798094470881789419536289642564952373504638671875 0
c p weight -153 1 0
c p weight 154 -1 0
c p weight -154 1 0
c p weight 157 -1 0
c p weight -157 1 0
c p weight 159 1 0
c p weight -159 1 0
c p weight 160 0 0
c p weight -160 1 0
c p weight 161 -1 0
c p weight -161 1 0
c p weight 163 6.12323399573676603586882014729198302312846062338790031898128063403419218957424163818359375E-17 0
c p weight -163 1 0
c p weight 164 1 0
c p weight -164 1 0
c p weight 165 -1 0
c p weight -165 1 0
c p weight 167 -0.9996923050643833352779665801790542900562286376953125 0
c p weight -167 1 0
c p weight 168 -0.0248051445280987915842363378260415629483759403228759765625 0
c p weight -168 1 0
c p weight 169 -1 0
c p weight -169 1 0
c p weight 171 6.12323399573676603586882014729198302312846062338790031898128063403419218957424163818359375E-17 0
c p weight -171 1 0
c p weight 172 1 0
c p weight -172 1 0
c p weight 173 -1 0
c p weight -173 1 0
c p weight 175 -1 0
c p weight -175 1 0
c p weight 176 3.673940397442059375002259206809000622711899723162043418511757408850826323032379150390625E-16 0
c p weight -176 1 0
c p weight 177 -1 0
c p weight -177 1 0
c p weight 179 0.383385492828331120307439050520770251750946044921875 0
c p weight -179 1 0
c p weight 180 -0.923588416930819722239220936899073421955108642578125 0
c p weight -180 1 0
c p weight 181 -1 0
c p weight -181 1 0
c p weight 183 1 0
c p weight -183 1 0
c p weight 184 0 0
c p weight -184 1 0
c p weight 185 -1 0
c p weight -185 1 0
c p weight 187 6.12323399573676603586882014729198302312846062338790031898128063403419218957424163818359375E-17 0
c p weight -187 1 0
c p weight 188 1 0
c p weight -188 1 0
c p weight 189 -1 0
c p weight -189 1 0
c p weight 191 0.99706717591611571105403299952740781009197235107421875 0
c p weight -191 1 0
c p weight 192 0.0765313446285997012186186339022242464125156402587890625 0
c p weight -192 1 0
c p weight 193 -1 0
c p weight -193 1 0
c p weight 195 6.12323399573676603586882014729198302312846062338790031898128063403419218957424163818359375E-17 0
c p weight -195 1 0
c p weight 196 1 0
c p weight -196 1 0
c p weight 197 -1 0
c p weight -197 1 0
c p weight 199 -1 0
c p weight -199 1 0
c p weight 200 3.673940397442059375002259206809000622711899723162043418511757408850826323032379150390625E-16 0
c p weight -200 1 0
c p weight 201 -1 0
c p weight -201 1 0
c p weight 203 -0.7602995870341702211447909576236270368099212646484375 0
c p weight -203 1 0
c p weight 204 -0.649572580975882996057180207571946084499359130859375 0
c p weight -204 1 0
c p weight 205 -1 0
c p weight -205 1 0
-3 0
-1 0
5 1 -2 0
-5 1 2 0
-6 1 0
5 -6 -2 0
-5 -6 2 0
5 6 -1 2 0
-5 6 -1 -2 0
-7 1 0
5 -7 2 0
-5 -7 -2 0
5 7 -1 -2 0
-5 7 -1 2 0
-8 1 0
-8 2 0
-8 -5 0
8 5 -1 -2 0
9 -1 5 0
-9 1 5 0
-10 5 0
9 -10 -1 0
-9 -10 1 0
9 10 1 -5 0
-9 10 -1 -5 0
-11 5 0
9 -11 1 0
-9 -11 -1 0
9 11 -1 -5 0
-9 11 1 -5 0
-12 9 0
-12 5 0
-12 -1 0
12 -9 1 -5 0
13 9 -5 0
-13 9 5 0
-14 9 0
13 -14 -5 0
-13 -14 5 0
13 14 -9 5 0
-13 14 -9 -5 0
-15 9 0
13 -15 5 0
-13 -15 -5 0
13 15 -9 -5 0
-13 15 -9 5 0
-16 9 0
-16 5 0
-16 -13 0
16 13 -9 -5 0
17 -9 13 0
-17 9 13 0
-18 13 0
17 -18 -9 0
-17 -18 9 0
17 18 9 -13 0
-17 18 -9 -13 0
-19 13 0
17 -19 9 0
-17 -19 -9 0
17 19 -9 -13 0
-17 19 9 -13 0
-20 17 0
-20 13 0
-20 -9 0
20 -17 9 -13 0
21 17 -13 0
-21 17 13 0
-22 17 0
21 -22 -13 0
-21 -22 13 0
21 22 -17 13 0
-21 22 -17 -13 0
-23 17 0
21 -23 13 0
-21 -23 -13 0
21 23 -17 -13 0
-21 23 -17 13 0
-24 17 0
-24 13 0
-24 -21 0
24 21 -17 -13 0
25 17 -21 0
-25 17 21 0
-26 17 0
25 -26 -21 0
-25 -26 21 0
25 26 -17 21 0
-25 26 -17 -21 0
-27 17 0
25 -27 21 0
-25 -27 -21 0
25 27 -17 -21 0
-25 27 -17 21 0
-28 17 0
-28 21 0
-28 -25 0
28 25 -17 -21 0
29 3 -4 0
-29 3 4 0
-30 3 0
29 -30 -4 0
-29 -30 4 0
29 30 -3 4 0
-29 30 -3 -4 0
-31 3 0
29 -31 4 0
-29 -31 -4 0
29 31 -3 -4 0
-29 31 -3 4 0
-32 3 0
-32 4 0
-32 -29 0
32 29 -3 -4 0
33 -3 29 0
-33 3 29 0
-34 29 0
33 -34 -3 0
-33 -34 3 0
33 34 3 -29 0
-33 34 -3 -29 0
-35 29 0
33 -35 3 0
-33 -35 -3 0
33 35 -3 -29 0
-33 35 3 -29 0
-36 33 0
-36 29 0
-36 -3 0
36 -33 3 -29 0
37 33 -29 0
-37 33 29 0
-38 33 0
37 -38 -29 0
-37 -38 29 0
37 38 -33 29 0
-37 38 -33 -29 0
-39 33 0
37 -39 29 0
-37 -39 -29 0
37 39 -33 -29 0
-37 39 -33 29 0
-40 33 0
-40 29 0
-40 -37 0
40 37 -33 -29 0
41 -33 37 0
-41 33 37 0
-42 37 0
41 -42 -33 0
-41 -42 33 0
41 42 33 -37 0
-41 42 -33 -37 0
-43 37 0
41 -43 33 0
-41 -43 -33 0
41 43 -33 -37 0
-41 43 33 -37 0
-44 41 0
-44 37 0
-44 -33 0
44 -41 33 -37 0
45 41 -37 0
-45 41 37 0
-46 41 0
45 -46 -37 0
-45 -46 37 0
45 46 -41 37 0
-45 46 -41 -37 0
-47 41 0
45 -47 37 0
-45 -47 -37 0
45 47 -41 -37 0
-45 47 -41 37 0
-48 41 0
-48 37 0
-48 -45 0
48 45 -41 -37 0
49 41 -45 0
-49 41 45 0
-50 41 0
49 -50 -45 0
-49 -50 45 0
49 50 -41 45 0
-49 50 -41 -45 0
-51 41 0
49 -51 45 0
-49 -51 -45 0
49 51 -41 -45 0
-49 51 -41 45 0
-52 41 0
-52 45 0
-52 -49 0
52 49 -41 -45 0
53 17 -41 0
53 -17 41 0
-53 17 41 0
-53 -17 -41 0
54 25 -49 0
54 -25 49 0
-54 25 49 0
-54 -25 -49 0
-55 17 0
-55 49 0
-55 41 -25 0
-55 -41 25 0
55 -17 41 25 -49 0
55 -17 -41 -25 -49 0
56 17 -54 0
-56 17 54 0
-57 17 0
56 -57 -54 0
-56 -57 54 0
56 57 -17 54 0
-56 57 -17 -54 0
-58 17 0
56 -58 54 0
-56 -58 -54 0
56 58 -17 -54 0
-56 58 -17 54 0
-59 17 0
-59 54 0
-59 -56 0
59 56 -17 -54 0
60 -17 56 0
-60 17 56 0
-61 56 0
60 -61 -17 0
-60 -61 17 0
60 61 17 -56 0
-60 61 -17 -56 0
-62 56 0
60 -62 17 0
-60 -62 -17 0
60 62 -17 -56 0
-60 62 17 -56 0
-63 60 0
-63 56 0
-63 -17 0
63 -60 17 -56 0
64 60 -56 0
-64 60 56 0
-65 60 0
64 -65 -56 0
-64 -65 56 0
64 65 -60 56 0
-64 65 -60 -56 0
-66 60 0
64 -66 56 0
-64 -66 -56 0
64 66 -60 -56 0
-64 66 -60 56 0
-67 60 0
-67 56 0
-67 -64 0
67 64 -60 -56 0
68 -60 64 0
-68 60 64 0
-69 64 0
68 -69 -60 0
-68 -69 60 0
68 69 60 -64 0
-68 69 -60 -64 0
-70 64 0
68 -70 60 0
-68 -70 -60 0
68 70 -60 -64 0
-68 70 60 -64 0
-71 68 0
-71 64 0
-71 -60 0
71 -68 60 -64 0
72 68 -64 0
-72 68 64 0
-73 68 0
72 -73 -64 0
-72 -73 64 0
72 73 -68 64 0
-72 73 -68 -64 0
-74 68 0
72 -74 64 0
-72 -74 -64 0
72 74 -68 -64 0
-72 74 -68 64 0
-75 68 0
-75 64 0
-75 -72 0
75 72 -68 -64 0
76 68 -72 0
-76 68 72 0
-77 68 0
76 -77 -72 0
-76 -77 72 0
76 77 -68 72 0
-76 77 -68 -72 0
-78 68 0
76 -78 72 0
-76 -78 -72 0
76 78 -68 -72 0
-76 78 -68 72 0
-79 68 0
-79 72 0
-79 -76 0
79 76 -68 -72 0
80 53 -49 0
-80 53 49 0
-81 53 0
80 -81 -49 0
-80 -81 49 0
80 81 -53 49 0
-80 81 -53 -49 0
-82 53 0
80 -82 49 0
-80 -82 -49 0
80 82 -53 -49 0
-80 82 -53 49 0
-83 53 0
-83 49 0
-83 -80 0
83 80 -53 -49 0
84 -53 80 0
-84 53 80 0
-85 80 0
84 -85 -53 0
-84 -85 53 0
84 85 53 -80 0
-84 85 -53 -80 0
-86 80 0
84 -86 53 0
-84 -86 -53 0
84 86 -53 -80 0
-84 86 53 -80 0
-87 84 0
-87 80 0
-87 -53 0
87 -84 53 -80 0
88 84 -80 0
-88 84 80 0
-89 84 0
88 -89 -80 0
-88 -89 80 0
88 89 -84 80 0
-88 89 -84 -80 0
-90 84 0
88 -90 80 0
-88 -90 -80 0
88 90 -84 -80 0
-88 90 -84 80 0
-91 84 0
-91 80 0
-91 -88 0
91 88 -84 -80 0
92 -84 88 0
-92 84 88 0
-93 88 0
92 -93 -84 0
-92 -93 84 0
92 93 84 -88 0
-92 93 -84 -88 0
-94 88 0
92 -94 84 0
-92 -94 -84 0
92 94 -84 -88 0
-92 94 84 -88 0
-95 92 0
-95 88 0
-95 -84 0
95 -92 84 -88 0
96 92 -88 0
-96 92 88 0
-97 92 0
96 -97 -88 0
-96 -97 88 0
96 97 -92 88 0
-96 97 -92 -88 0
-98 92 0
96 -98 88 0
-96 -98 -88 0
96 98 -92 -88 0
-96 98 -92 88 0
-99 92 0
-99 88 0
-99 -96 0
99 96 -92 -88 0
100 92 -96 0
-100 92 96 0
-101 92 0
100 -101 -96 0
-100 -101 96 0
100 101 -92 96 0
-100 101 -92 -96 0
-102 92 0
100 -102 96 0
-100 -102 -96 0
100 102 -92 -96 0
-100 102 -92 96 0
-103 92 0
-103 96 0
-103 -100 0
103 100 -92 -96 0
104 68 -92 0
104 -68 92 0
-104 68 92 0
-104 -68 -92 0
105 76 -100 0
105 -76 100 0
-105 76 100 0
-105 -76 -100 0
-106 68 0
-106 100 0
-106 92 -76 0
-106 -92 76 0
106 -68 92 76 -100 0
106 -68 -92 -76 -100 0
107 68 -105 0
-107 68 105 0
-108 68 0
107 -108 -105 0
-107 -108 105 0
107 108 -68 105 0
-107 108 -68 -105 0
-109 68 0
107 -109 105 0
-107 -109 -105 0
107 109 -68 -105 0
-107 109 -68 105 0
-110 68 0
-110 105 0
-110 -107 0
110 107 -68 -105 0
111 -68 107 0
-111 68 107 0
-112 107 0
111 -112 -68 0
-111 -112 68 0
111 112 68 -107 0
-111 112 -68 -107 0
-113 107 0
111 -113 68 0
-111 -113 -68 0
111 113 -68 -107 0
-111 113 68 -107 0
-114 111 0
-114 107 0
-114 -68 0
114 -111 68 -107 0
115 111 -107 0
-115 111 107 0
-116 111 0
115 -116 -107 0
-115 -116 107 0
115 116 -111 107 0
-115 116 -111 -107 0
-117 111 0
115 -117 107 0
-115 -117 -107 0
115 117 -111 -107 0
-115 117 -111 107 0
-118 111 0
-118 107 0
-118 -115 0
118 115 -111 -107 0
119 -111 115 0
-119 111 115 0
-120 115 0
119 -120 -111 0
-119 -120 111 0
119 120 111 -115 0
-119 120 -111 -115 0
-121 115 0
119 -121 111 0
-119 -121 -111 0
119 121 -111 -115 0
-119 121 111 -115 0
-122 119 0
-122 115 0
-122 -111 0
122 -119 111 -115 0
123 119 -115 0
-123 119 115 0
-124 119 0
123 -124 -115 0
-123 -124 115 0
123 124 -119 115 0
-123 124 -119 -115 0
-125 119 0
123 -125 115 0
-123 -125 -115 0
123 125 -119 -115 0
-123 125 -119 115 0
-126 119 0
-126 115 0
-126 -123 0
126 123 -119 -115 0
127 119 -123 0
-127 119 123 0
-128 119 0
127 -128 -123 0
-127 -128 123 0
127 128 -119 123 0
-127 128 -119 -123 0
-129 119 0
127 -129 123 0
-127 -129 -123 0
127 129 -119 -123 0
-127 129 -119 123 0
-130 119 0
-130 123 0
-130 -127 0
130 127 -119 -123 0
131 104 -100 0
-131 104 100 0
-132 104 0
131 -132 -100 0
-131 -132 100 0
131 132 -104 100 0
-131 132 -104 -100 0
-133 104 0
131 -133 100 0
-131 -133 -100 0
131 133 -104 -100 0
-131 133 -104 100 0
-134 104 0
-134 100 0
-134 -131 0
134 131 -104 -100 0
135 -104 131 0
-135 104 131 0
-136 131 0
135 -136 -104 0
-135 -136 104 0
135 136 104 -131 0
-135 136 -104 -131 0
-137 131 0
135 -137 104 0
-135 -137 -104 0
135 137 -104 -131 0
-135 137 104 -131 0
-138 135 0
-138 131 0
-138 -104 0
138 -135 104 -131 0
139 135 -131 0
-139 135 131 0
-140 135 0
139 -140 -131 0
-139 -140 131 0
139 140 -135 131 0
-139 140 -135 -131 0
-141 135 0
139 -141 131 0
-139 -141 -131 0
139 141 -135 -131 0
-139 141 -135 131 0
-142 135 0
-142 131 0
-142 -139 0
142 139 -135 -131 0
143 -135 139 0
-143 135 139 0
-144 139 0
143 -144 -135 0
-143 -144 135 0
143 144 135 -139 0
-143 144 -135 -139 0
-145 139 0
143 -145 135 0
-143 -145 -135 0
143 145 -135 -139 0
-143 145 135 -139 0
-146 143 0
-146 139 0
-146 -135 0
146 -143 135 -139 0
147 143 -139 0
-147 143 139 0
-148 143 0
147 -148 -139 0
-147 -148 139 0
147 148 -143 139 0
-147 148 -143 -139 0
-149 143 0
147 -149 139 0
-147 -149 -139 0
147 149 -143 -139 0
-147 149 -143 139 0
-150 143 0
-150 139 0
-150 -147 0
150 147 -143 -139 0
151 143 -147 0
-151 143 147 0
-152 143 0
151 -152 -147 0
-151 -152 147 0
151 152 -143 147 0
-151 152 -143 -147 0
-153 143 0
151 -153 147 0
-151 -153 -147 0
151 153 -143 -147 0
-151 153 -143 147 0
-154 143 0
-154 147 0
-154 -151 0
154 151 -143 -147 0
155 119 -143 0
155 -119 143 0
-155 119 143 0
-155 -119 -143 0
156 127 -151 0
156 -127 151 0
-156 127 151 0
-156 -127 -151 0
-157 119 0
-157 151 0
-157 143 -127 0
-157 -143 127 0
157 -119 143 127 -151 0
157 -119 -143 -127 -151 0
158 119 -156 0
-158 119 156 0
-159 119 0
158 -159 -156 0
-158 -159 156 0
158 159 -119 156 0
-158 159 -119 -156 0
-160 119 0
158 -160 156 0
-158 -160 -156 0
158 160 -119 -156 0
-158 160 -119 156 0
-161 119 0
-161 156 0
-161 -158 0
161 158 -119 -156 0
162 -119 158 0
-162 119 158 0
-163 158 0
162 -163 -119 0
-162 -163 119 0
162 163 119 -158 0
-162 163 -119 -158 0
-164 158 0
162 -164 119 0
-162 -164 -119 0
162 164 -119 -158 0
-162 164 119 -158 0
-165 162 0
-165 158 0
-165 -119 0
165 -162 119 -158 0
166 162 -158 0
-166 162 158 0
-167 162 0
166 -167 -158 0
-166 -167 158 0
166 167 -162 158 0
-166 167 -162 -158 0
-168 162 0
166 -168 158 0
-166 -168 -158 0
166 168 -162 -158 0
-166 168 -162 158 0
-169 162 0
-169 158 0
-169 -166 0
169 166 -162 -158 0
170 -162 166 0
-170 162 166 0
-171 166 0
170 -171 -162 0
-170 -171 162 0
170 171 162 -166 0
-170 171 -162 -166 0
-172 166 0
170 -172 162 0
-170 -172 -162 0
170 172 -162 -166 0
-170 172 162 -166 0
-173 170 0
-173 166 0
-173 -162 0
173 -170 162 -166 0
174 170 -166 0
-174 170 166 0
-175 170 0
174 -175 -166 0
-174 -175 166 0
174 175 -170 166 0
-174 175 -170 -166 0
-176 170 0
174 -176 166 0
-174 -176 -166 0
174 176 -170 -166 0
-174 176 -170 166 0
-177 170 0
-177 166 0
-177 -174 0
177 174 -170 -166 0
178 170 -174 0
-178 170 174 0
-179 170 0
178 -179 -174 0
-178 -179 174 0
178 179 -170 174 0
-178 179 -170 -174 0
-180 170 0
178 -180 174 0
-178 -180 -174 0
178 180 -170 -174 0
-178 180 -170 174 0
-181 170 0
-181 174 0
-181 -178 0
181 178 -170 -174 0
182 155 -151 0
-182 155 151 0
-183 155 0
182 -183 -151 0
-182 -183 151 0
182 183 -155 151 0
-182 183 -155 -151 0
-184 155 0
182 -184 151 0
-182 -184 -151 0
182 184 -155 -151 0
-182 184 -155 151 0
-185 155 0
-185 151 0
-185 -182 0
185 182 -155 -151 0
186 -155 182 0
-186 155 182 0
-187 182 0
186 -187 -155 0
-186 -187 155 0
186 187 155 -182 0
-186 187 -155 -182 0
-188 182 0
186 -188 155 0
-186 -188 -155 0
186 188 -155 -182 0
-186 188 155 -182 0
-189 186 0
-189 182 0
-189 -155 0
189 -186 155 -182 0
190 186 -182 0
-190 186 182 0
-191 186 0
190 -191 -182 0
-190 -191 182 0
190 191 -186 182 0
-190 191 -186 -182 0
-192 186 0
190 -192 182 0
-190 -192 -182 0
190 192 -186 -182 0
-190 192 -186 182 0
-193 186 0
-193 182 0
-193 -190 0
193 190 -186 -182 0
194 -186 190 0
-194 186 190 0
-195 190 0
194 -195 -186 0
-194 -195 186 0
194 195 186 -190 0
-194 195 -186 -190 0
-196 190 0
194 -196 186 0
-194 -196 -186 0
194 196 -186 -190 0
-194 196 186 -190 0
-197 194 0
-197 190 0
-197 -186 0
197 -194 186 -190 0
198 194 -190 0
-198 194 190 0
-199 194 0
198 -199 -190 0
-198 -199 190 0
198 199 -194 190 0
-198 199 -194 -190 0
-200 194 0
198 -200 190 0
-198 -200 -190 0
198 200 -194 -190 0
-198 200 -194 190 0
-201 194 0
-201 190 0
-201 -198 0
201 198 -194 -190 0
202 194 -198 0
-202 194 198 0
-203 194 0
202 -203 -198 0
-202 -203 198 0
202 203 -194 198 0
-202 203 -194 -198 0
-204 194 0
202 -204 198 0
-202 -204 -198 0
202 204 -194 -198 0
-202 204 -194 198 0
-205 194 0
-205 198 0
-205 -202 0
205 202 -194 -198 0
-170 0
-194 0
-202 0
